/* Objective function */
max: +1025500 C1 +400500 C2 +1182500 C3 +508500 C4 +748000 C5 +796000 C6 +55500 C7 -2500 C8 +414000 C9 +561000 C10
 +527000 C11 +965000 C12 +185000 C13 +488000 C14 +1082500 C15 +621500 C16 +376500 C17 +878500 C18 +174000 C19
 +1409500 C20 +786500 C21 +695500 C22 +612000 C23 +595000 C24 +255500 C25 +610000 C26 +15500 C27 +884500 C28
 +249000 C29 +719000 C30 +34000 C31 +575500 C32 +623000 C33 +209000 C34 +502500 C35 +854500 C36 +1001500 C37
 +587500 C38 -2000 C39 +26500 C40 +930000 C41 +968000 C42 +166000 C43 +1908500 C44 +1305500 C45 +247000 C46
 +1679500 C47 +1159000 C48 +207500 C49 +1787000 C50 +1559500 C51 +1866500 C52 +1321000 C53 +206000 C54
 +530500 C55 +2365500 C56 +369500 C57 +694000 C58 +109000 C59 +608500 C60 +986000 C61 +774000 C62 +406000 C63
 +553000 C64 +33500 C65 +787500 C66 +388500 C67 +947000 C68 +231500 C69 +994500 C70 +156000 C71 +404500 C72
 +1376000 C73 +1567000 C74 +15000 C75 +684000 C76 +549500 C77 +853000 C78 +47000 C79 +46500 C80 +615500 C81
 +439500 C82 +96500 C83 +686000 C84 +910000 C85 +130500 C86 +33000 C87 +825500 C88 +1105500 C89 +81000 C90
 +583500 C91 +987500 C92 +756000 C93 +174500 C94 +548500 C95 +211000 C96 +121000 C97 +499500 C98 +455500 C99
 +262000 C100 -1000 C101 +406000 C102 +538500 C103 +39500 C104 +172000 C105 +564500 C106 -19000 C107
 +1673500 C108 +727500 C109 +514500 C110 +1240500 C111 +1525500 C112 +500500 C113 +1715000 C114 +86500 C115
 +1306500 C116 +1263500 C117 +670500 C118 +912500 C119 +940500 C120 +335500 C121 +1164000 C122 +2571500 C123
 +230000 C124 +2309000 C125 +1133000 C126 +1178000 C127 +161500 C128 +6500 C129 +33500 C130 +1227000 C131
 +1086500 C132 +702500 C133 +600500 C134 +1086500 C135 +198500 C136 +41000 C137 +786000 C138 +474500 C139
 -26000 C140 +279500 C141 +593500 C142 +1284500 C143 +323000 C144 +134000 C145 +15000 C146 +77500 C147
 +1486000 C148 +649000 C149 +850000 C150 +721000 C151 +231500 C152 +746500 C153 +1262500 C154 +802500 C155
 +926500 C156 +777000 C157 -40000 C158 +561500 C159 +461000 C160 +743000 C161 +256500 C162 +1090000 C163
 +874000 C164 +116500 C165 +29000 C166 +327000 C167 +674000 C168 -23000 C169 +1092000 C170 +843500 C171
 +636500 C172 +401000 C173 +1397500 C174 +647000 C175 -94000 C176 +682000 C177 +555500 C178 -10000 C179
 +130500 C180 +437500 C181 +952500 C182 +765000 C183 +479500 C184 +394500 C185 +406500 C186 +778000 C187
 +231500 C188 +367000 C189 +754000 C190 +890500 C191 +115000 C192 +158000 C193 -12500 C194 +1180500 C195
 +881000 C196 +619500 C197 +551000 C198 +393500 C199 +800000 C200 +794500 C201 +27000 C202 +1289500 C203
 +814500 C204 +960500 C205 +798000 C206 +535000 C207 +820000 C208 +131500 C209 +1060500 C210 +82000 C211
 +239000 C212 +386000 C213 +818500 C214 +800000 C215 +352500 C216 +427500 C217 +1025500 C218 -29000 C219
 +708000 C220 +11000 C221 +504000 C222 +63000 C223 +789500 C224 +71500 C225 +569000 C226 +60000 C227
 -3500 C228 +359000 C229 +590500 C230 +1000 C231 +907000 C232 +336500 C233 +214500 C234 +370500 C235
 +680500 C236 +395000 C237 +714500 C238 +459000 C239 +694500 C240 +631000 C241 +221000 C242 +864000 C243
 +40000 C244 +277000 C245 +35500 C246 -15500 C247 +57000 C248 +253500 C249 +488000 C250 +635000 C251
 +840000 C252 +464500 C253 +1193500 C254 -18500 C255 +375500 C256 +547500 C257 +100000 C258 +391000 C259
 +494500 C260 +783000 C261 +603500 C262 +722000 C263 +778000 C264 +154500 C265 +581500 C266 +986500 C267
 +182000 C268 +1337000 C269 +1241500 C270 +1105500 C271 +659500 C272 +494000 C273 +427500 C274 +607000 C275
 +866000 C276 +448000 C277 +337000 C278 +1214500 C279 +1025500 C280 +479500 C281 +144500 C282 +1495000 C283
 +486000 C284 +610500 C285 +132500 C286 +59500 C287 +1294000 C288 +254000 C289 +302000 C290 +849500 C291
 +757000 C292 +1230000 C293 +457500 C294 +499000 C295 +1321500 C296 +168000 C297 +500 C298 +1211000 C299
 -10000 C300 +853500 C301 +64000 C302 +750000 C303 +452000 C304 +258000 C305 +391500 C306 +793000 C307
 +73500 C308 +550500 C309 +1126500 C310 +1078000 C311 +800000 C312 +975000 C313 +265000 C314 +305500 C315
 +115000 C316 +293000 C317 +1021000 C318 +1500 C319 +556500 C320 +423000 C321 +141000 C322 +1242000 C323
 +260000 C324 +511000 C325 +717500 C326 +472000 C327 +82500 C328 -60000 C329 +94500 C330 +331000 C331
 +191000 C332 +324500 C333 +944500 C334 +2108500 C335 -5500 C336 -11000 C337 +47000 C338 +673000 C339
 +386000 C340 +98000 C341 +883500 C342 +926500 C343 +691500 C344 +85500 C345 -5000 C346 +613000 C347
 +1074500 C348 -15000 C349 +322500 C350 +752500 C351 +232500 C352 +1782500 C353 -6500 C354 +74500 C355
 +395500 C356 +1038500 C357 -22500 C358 +403500 C359 +307500 C360 +650500 C361 +678500 C362 +1001500 C363
 +9500 C364 +204500 C365 +678000 C366;

/* Constraints */
+8.5 C1 +8.5 C2 +9.5 C3 +8 C4 +8.5 C5 +8 C6 +5.5 C7 +6 C8 +5.5 C9 +7.5 C10 +6.5 C11 +8.5 C12 +7 C13 +7 C14
 +10 C15 +7.5 C16 +8.5 C17 +9 C18 +6 C19 +7.5 C20 +7.5 C21 +8.5 C22 +7 C23 +6.5 C24 +7.6 C25 +6.5 C26
 +5 C27 +9 C28 +10 C29 +8.5 C30 +8 C31 +7.5 C32 +10 C33 +10.5 C34 +6 C35 +9.5 C36 +11 C37 +7 C38 +5.5 C39
 +5.5 C40 +13 C41 +12 C42 +9.5 C43 +12 C44 +9.5 C45 +7.5 C46 +7.5 C47 +9.5 C48 +7.5 C49 +8.5 C50 +10.5 C51
 +10 C52 +13 C53 +6.5 C54 +6.6 C55 +10.5 C56 +9 C57 +10 C58 +8.5 C59 +10.5 C60 +10 C61 +7.5 C62 +11 C63
 +8.5 C64 +11 C65 +7 C66 +10.5 C67 +5 C68 +7 C69 +7.5 C70 +4.9 C71 +7.5 C72 +10.5 C73 +11.5 C74 +7 C75
 +8 C76 +7.5 C77 +8.5 C78 +7.5 C79 +7.5 C80 +6 C81 +7.5 C82 +5 C83 +6.5 C84 +8.5 C85 +5 C86 +5 C87 +8.5 C88
 +12 C89 +5 C90 +8 C91 +10 C92 +10.5 C93 +10.5 C94 +6.5 C95 +7 C96 +6.5 C97 +8 C98 +6 C99 +8 C100 +5 C101
 +6 C102 +6 C103 +5.5 C104 +5.5 C105 +9.5 C106 +5 C107 +11 C108 +11.6 C109 +11 C110 +11.5 C111 +12 C112
 +12 C113 +12 C114 +11 C115 +11 C116 +10 C117 +10 C118 +14 C119 +12.5 C120 +8 C121 +11 C122 +13.5 C123
 +7 C124 +13 C125 +5.5 C126 +6 C127 +5 C128 +5 C129 +5 C130 +5.5 C131 +5.5 C132 +6 C133 +6 C134 +7 C135
 +5 C136 +5 C137 +6.5 C138 +6 C139 +5 C140 +7 C141 +7 C142 +9.5 C143 +8.5 C144 +6 C145 +7 C146 +8.5 C147
 +8.5 C148 +7.5 C149 +6.6 C150 +7.9 C151 +7 C152 +7 C153 +6.5 C154 +8 C155 +11 C156 +8 C157 +5 C158 +7 C159
 +6 C160 +5.6 C161 +9.5 C162 +8 C163 +6 C164 +5 C165 +5.5 C166 +5 C167 +6 C168 +7 C169 +7 C170 +7.5 C171
 +6.5 C172 +6 C173 +9.5 C174 +7 C175 +5.5 C176 +9.5 C177 +5.5 C178 +6 C179 +5.5 C180 +5 C181 +8 C182
 +5.5 C183 +5.5 C184 +5 C185 +6.5 C186 +5 C187 +6.5 C188 +5.5 C189 +8.5 C190 +7 C191 +5 C192 +7.5 C193
 +5 C194 +7 C195 +6 C196 +5.5 C197 +6.5 C198 +5 C199 +6 C200 +5.5 C201 +6 C202 +7 C203 +5 C204 +5.5 C205
 +6.5 C206 +5 C207 +6 C208 +6 C209 +6 C210 +5.5 C211 +5.5 C212 +7 C213 +8.5 C214 +5 C215 +7.5 C216 +8 C217
 +10 C218 +5 C219 +9 C220 +7 C221 +6.5 C222 +6 C223 +10 C224 +6 C225 +6.5 C226 +5 C227 +5 C228 +6.5 C229
 +9.5 C230 +5 C231 +7.5 C232 +8.5 C233 +7.5 C234 +5 C235 +6 C236 +8.5 C237 +9.5 C238 +7.5 C239 +8 C240
 +8 C241 +5.5 C242 +8.5 C243 +5.5 C244 +5.5 C245 +7 C246 +5 C247 +6.5 C248 +8 C249 +6.5 C250 +7 C251
 +5.5 C252 +9.5 C253 +10 C254 +5.5 C255 +7.5 C256 +7.5 C257 +5 C258 +6 C259 +6.5 C260 +6 C261 +5.5 C262
 +7.5 C263 +9.5 C264 +7 C265 +10 C266 +7.5 C267 +7.5 C268 +12 C269 +12 C270 +10 C271 +8.5 C272 +6 C273
 +9 C274 +9.5 C275 +8.5 C276 +7.5 C277 +6 C278 +12 C279 +5.5 C280 +6 C281 +6.5 C282 +7 C283 +7.5 C284
 +7 C285 +7 C286 +6.5 C287 +7 C288 +7.5 C289 +6.5 C290 +10 C291 +6.5 C292 +8.5 C293 +7.5 C294 +10 C295
 +5.5 C296 +6 C297 +6.5 C298 +11 C299 +7.5 C300 +7 C301 +7 C302 +7 C303 +5 C304 +8 C305 +6.5 C306 +6.5 C307
 +7 C308 +7 C309 +10 C310 +7.5 C311 +5 C312 +6 C313 +7 C314 +6 C315 +7 C316 +6 C317 +7 C318 +6 C319 +7 C320
 +5 C321 +5.5 C322 +10 C323 +7.5 C324 +7.5 C325 +8 C326 +6 C327 +6 C328 +5 C329 +5 C330 +6.5 C331 +5.5 C332
 +8 C333 +12 C334 +11 C335 +5 C336 +5 C337 +6.5 C338 +7.5 C339 +7 C340 +6.5 C341 +8.5 C342 +7.5 C343
 +6.5 C344 +7.5 C345 +5.5 C346 +7 C347 +8 C348 +8 C349 +7 C350 +6 C351 +7.5 C352 +12 C353 +6 C354 +6 C355
 +7.5 C356 +7 C357 +5 C358 +6 C359 +5.5 C360 +7.5 C361 +6.5 C362 +7 C363 +6.5 C364 +8.5 C365 +9 C366 <= 100;
+C1 +C2 +C3 +C4 +C5 +C6 +C7 +C8 +C9 +C10 +C11 +C12 +C13 +C14 +C15 +C16 +C17 +C18 +C19 +C20 +C21 +C22
 +C23 +C24 +C25 +C26 +C27 +C28 +C29 +C30 +C31 +C32 +C33 +C34 +C35 +C36 +C37 +C38 +C39 +C40 +C41 +C42
 +C43 +C44 +C45 +C46 +C47 +C48 +C49 +C50 +C51 +C52 +C53 +C54 +C55 +C56 +C57 +C58 +C59 +C60 +C61 +C62
 +C63 +C64 +C65 +C66 +C67 +C68 +C69 +C70 +C71 +C72 +C73 +C74 +C75 +C76 +C77 +C78 +C79 +C80 +C81 +C82
 +C83 +C84 +C85 +C86 +C87 +C88 +C89 +C90 +C91 +C92 +C93 +C94 +C95 +C96 +C97 +C98 +C99 +C100 +C101 +C102
 +C103 +C104 +C105 +C106 +C107 +C108 +C109 +C110 +C111 +C112 +C113 +C114 +C115 +C116 +C117 +C118 +C119
 +C120 +C121 +C122 +C123 +C124 +C125 +C126 +C127 +C128 +C129 +C130 +C131 +C132 +C133 +C134 +C135 +C136
 +C137 +C138 +C139 +C140 +C141 +C142 +C143 +C144 +C145 +C146 +C147 +C148 +C149 +C150 +C151 +C152 +C153
 +C154 +C155 +C156 +C157 +C158 +C159 +C160 +C161 +C162 +C163 +C164 +C165 +C166 +C167 +C168 +C169 +C170
 +C171 +C172 +C173 +C174 +C175 +C176 +C177 +C178 +C179 +C180 +C181 +C182 +C183 +C184 +C185 +C186 +C187
 +C188 +C189 +C190 +C191 +C192 +C193 +C194 +C195 +C196 +C197 +C198 +C199 +C200 +C201 +C202 +C203 +C204
 +C205 +C206 +C207 +C208 +C209 +C210 +C211 +C212 +C213 +C214 +C215 +C216 +C217 +C218 +C219 +C220 +C221
 +C222 +C223 +C224 +C225 +C226 +C227 +C228 +C229 +C230 +C231 +C232 +C233 +C234 +C235 +C236 +C237 +C238
 +C239 +C240 +C241 +C242 +C243 +C244 +C245 +C246 +C247 +C248 +C249 +C250 +C251 +C252 +C253 +C254 +C255
 +C256 +C257 +C258 +C259 +C260 +C261 +C262 +C263 +C264 +C265 +C266 +C267 +C268 +C269 +C270 +C271 +C272
 +C273 +C274 +C275 +C276 +C277 +C278 +C279 +C280 +C281 +C282 +C283 +C284 +C285 +C286 +C287 +C288 +C289
 +C290 +C291 +C292 +C293 +C294 +C295 +C296 +C297 +C298 +C299 +C300 +C301 +C302 +C303 +C304 +C305 +C306
 +C307 +C308 +C309 +C310 +C311 +C312 +C313 +C314 +C315 +C316 +C317 +C318 +C319 +C320 +C321 +C322 +C323
 +C324 +C325 +C326 +C327 +C328 +C329 +C330 +C331 +C332 +C333 +C334 +C335 +C336 +C337 +C338 +C339 +C340
 +C341 +C342 +C343 +C344 +C345 +C346 +C347 +C348 +C349 +C350 +C351 +C352 +C353 +C354 +C355 +C356 +C357
 +C358 +C359 +C360 +C361 +C362 +C363 +C364 +C365 +C366 = 11;
+C1 +2 C2 +2 C3 +2 C4 +4 C5 +4 C6 +4 C7 +2 C8 +4 C9 +4 C10 +8 C11 +C12 +2 C13 +2 C14 +2 C15 +2 C16 +2 C17
 +2 C18 +4 C19 +4 C20 +4 C21 +4 C22 +4 C23 +4 C24 +2 C25 +4 C26 +4 C27 +C28 +2 C29 +2 C30 +2 C31 +2 C32
 +2 C33 +2 C34 +2 C35 +4 C36 +4 C37 +4 C38 +4 C39 +4 C40 +4 C41 +8 C42 +2 C43 +2 C44 +2 C45 +2 C46 +2 C47
 +2 C48 +4 C49 +4 C50 +4 C51 +4 C52 +4 C53 +4 C54 +4 C55 +8 C56 +8 C57 +C58 +2 C59 +2 C60 +2 C61 +2 C62
 +2 C63 +2 C64 +2 C65 +4 C66 +4 C67 +4 C68 +4 C69 +4 C70 +4 C71 +4 C72 +4 C73 +8 C74 +8 C75 +4 C76 +2 C77
 +2 C78 +2 C79 +2 C80 +4 C81 +4 C82 +4 C83 +4 C84 +4 C85 +4 C86 +4 C87 +8 C88 +8 C89 +8 C90 +C91 +2 C92
 +2 C93 +2 C94 +2 C95 +4 C96 +4 C97 +4 C98 +8 C99 +4 C100 +4 C101 +4 C102 +4 C103 +4 C104 +8 C105 +8 C106
 +8 C107 +C108 +2 C109 +2 C110 +2 C111 +2 C112 +2 C113 +2 C114 +2 C115 +4 C116 +4 C117 +4 C118 +4 C119
 +4 C120 +4 C121 +4 C122 +8 C123 +8 C124 +8 C125 +C126 +2 C127 +2 C128 +2 C129 +2 C130 +2 C131 +2 C132
 +4 C133 +4 C134 +4 C135 +4 C136 +4 C137 +8 C138 +8 C139 +8 C140 +8 C141 +8 C142 +C143 +2 C144 +2 C145
 +2 C146 +2 C147 +2 C148 +4 C149 +4 C150 +4 C151 +4 C152 +2 C153 +4 C154 +4 C155 +8 C156 +8 C157 +8 C158
 +C159 +C160 +2 C161 +2 C162 +2 C163 +2 C164 +4 C165 +4 C166 +4 C167 +4 C168 +8 C169 +8 C170 +C171 +2 C172
 +2 C173 +2 C174 +2 C175 +2 C176 +2 C177 +4 C178 +4 C179 +4 C180 +4 C181 +4 C182 +4 C183 +8 C184 +8 C185
 +C186 +C187 +2 C188 +4 C189 +2 C190 +2 C191 +2 C192 +2 C193 +4 C194 +2 C195 +4 C196 +4 C197 +4 C198
 +4 C199 +4 C200 +8 C201 +8 C202 +8 C203 +8 C204 +C205 +2 C206 +4 C207 +4 C208 +4 C209 +4 C210 +4 C211
 +8 C212 +8 C213 +2 C214 +2 C215 +2 C216 +2 C217 +2 C218 +2 C219 +2 C220 +2 C221 +2 C222 +4 C223 +4 C224
 +4 C225 +4 C226 +4 C227 +4 C228 +4 C229 +8 C230 +8 C231 +C232 +2 C233 +4 C234 +2 C235 +2 C236 +2 C237
 +2 C238 +4 C239 +4 C240 +4 C241 +4 C242 +8 C243 +4 C244 +8 C245 +8 C246 +C247 +2 C248 +2 C249 +2 C250
 +2 C251 +2 C252 +4 C253 +4 C254 +4 C255 +8 C256 +4 C257 +4 C258 +4 C259 +4 C260 +8 C261 +8 C262 +8 C263
 +C264 +2 C265 +2 C266 +2 C267 +2 C268 +2 C269 +2 C270 +4 C271 +4 C272 +4 C273 +4 C274 +4 C275 +4 C276
 +4 C277 +8 C278 +8 C279 +2 C280 +8 C281 +8 C282 +8 C283 +2 C284 +4 C285 +4 C286 +8 C287 +8 C288 +2 C289
 +2 C290 +4 C291 +8 C292 +C293 +4 C294 +4 C295 +4 C296 +C297 +2 C298 +4 C299 +8 C300 +4 C301 +8 C302
 +8 C303 +4 C304 +4 C305 +2 C306 +2 C307 +8 C308 +2 C309 +4 C310 +2 C311 +4 C312 +4 C313 +2 C314 +4 C315
 +8 C316 +2 C317 +4 C318 +4 C319 +C320 +2 C321 +4 C322 +8 C323 +2 C324 +2 C325 +4 C326 +C327 +2 C328
 +4 C329 +4 C330 +4 C331 +4 C332 +C333 +8 C334 +4 C335 +C336 +4 C337 +8 C338 +2 C339 +4 C340 +8 C341
 +2 C342 +2 C343 +2 C344 +8 C345 +C346 +4 C347 +4 C348 +4 C349 +2 C350 +8 C351 +8 C352 +4 C353 +4 C354
 +2 C355 +8 C356 +C357 +4 C358 +2 C359 +4 C360 +8 C361 +2 C362 +8 C363 +8 C364 +4 C365 +8 C366 = 43;
+C1 +2 C2 +2 C3 +2 C4 +4 C5 +4 C6 +4 C7 +2 C8 +4 C9 +4 C10 +8 C11 +C12 +2 C13 +2 C14 +2 C15 +2 C16 +2 C17
 +2 C18 +4 C19 +4 C20 +4 C21 +4 C22 +4 C23 +4 C24 +2 C25 +4 C26 +4 C27 +C28 +2 C29 +2 C30 +2 C31 +2 C32
 +2 C33 +2 C34 +2 C35 +4 C36 +4 C37 +4 C38 +4 C39 +4 C40 +4 C41 +8 C42 +2 C43 +2 C44 +2 C45 +2 C46 +2 C47
 +2 C48 +4 C49 +4 C50 +4 C51 +4 C52 +4 C53 +4 C54 +4 C55 +8 C56 +8 C57 +C58 +2 C59 +2 C60 +2 C61 +2 C62
 +2 C63 +2 C64 +2 C65 +4 C66 +4 C67 +4 C68 +4 C69 +4 C70 +4 C71 +4 C72 +4 C73 +8 C74 +8 C75 +4 C76 +2 C77
 +2 C78 +2 C79 +2 C80 +4 C81 +4 C82 +4 C83 +4 C84 +4 C85 +4 C86 +4 C87 +8 C88 +8 C89 +8 C90 +C91 +2 C92
 +2 C93 +2 C94 +2 C95 +4 C96 +4 C97 +4 C98 +8 C99 +4 C100 +4 C101 +4 C102 +4 C103 +4 C104 +8 C105 +8 C106
 +8 C107 +C108 +2 C109 +2 C110 +2 C111 +2 C112 +2 C113 +2 C114 +2 C115 +4 C116 +4 C117 +4 C118 +4 C119
 +4 C120 +4 C121 +4 C122 +8 C123 +8 C124 +8 C125 +C126 +2 C127 +2 C128 +2 C129 +2 C130 +2 C131 +2 C132
 +4 C133 +4 C134 +4 C135 +4 C136 +4 C137 +8 C138 +8 C139 +8 C140 +8 C141 +8 C142 +C143 +2 C144 +2 C145
 +2 C146 +2 C147 +2 C148 +4 C149 +4 C150 +4 C151 +4 C152 +2 C153 +4 C154 +4 C155 +8 C156 +8 C157 +8 C158
 +C159 +C160 +2 C161 +2 C162 +2 C163 +2 C164 +4 C165 +4 C166 +4 C167 +4 C168 +8 C169 +8 C170 +C171 +2 C172
 +2 C173 +2 C174 +2 C175 +2 C176 +2 C177 +4 C178 +4 C179 +4 C180 +4 C181 +4 C182 +4 C183 +8 C184 +8 C185
 +C186 +C187 +2 C188 +4 C189 +2 C190 +2 C191 +2 C192 +2 C193 +4 C194 +2 C195 +4 C196 +4 C197 +4 C198
 +4 C199 +4 C200 +8 C201 +8 C202 +8 C203 +8 C204 +C205 +2 C206 +4 C207 +4 C208 +4 C209 +4 C210 +4 C211
 +8 C212 +8 C213 +2 C214 +2 C215 +2 C216 +2 C217 +2 C218 +2 C219 +2 C220 +2 C221 +2 C222 +4 C223 +4 C224
 +4 C225 +4 C226 +4 C227 +4 C228 +4 C229 +8 C230 +8 C231 +C232 +2 C233 +4 C234 +2 C235 +2 C236 +2 C237
 +2 C238 +4 C239 +4 C240 +4 C241 +4 C242 +8 C243 +4 C244 +8 C245 +8 C246 +C247 +2 C248 +2 C249 +2 C250
 +2 C251 +2 C252 +4 C253 +4 C254 +4 C255 +8 C256 +4 C257 +4 C258 +4 C259 +4 C260 +8 C261 +8 C262 +8 C263
 +C264 +2 C265 +2 C266 +2 C267 +2 C268 +2 C269 +2 C270 +4 C271 +4 C272 +4 C273 +4 C274 +4 C275 +4 C276
 +4 C277 +8 C278 +8 C279 +2 C280 +8 C281 +8 C282 +8 C283 +2 C284 +4 C285 +4 C286 +8 C287 +8 C288 +2 C289
 +2 C290 +4 C291 +8 C292 +C293 +4 C294 +4 C295 +4 C296 +C297 +2 C298 +4 C299 +8 C300 +4 C301 +8 C302
 +8 C303 +4 C304 +4 C305 +2 C306 +2 C307 +8 C308 +2 C309 +4 C310 +2 C311 +4 C312 +4 C313 +2 C314 +4 C315
 +8 C316 +2 C317 +4 C318 +4 C319 +C320 +2 C321 +4 C322 +8 C323 +2 C324 +2 C325 +4 C326 +C327 +2 C328
 +4 C329 +4 C330 +4 C331 +4 C332 +C333 +8 C334 +4 C335 +C336 +4 C337 +8 C338 +2 C339 +4 C340 +8 C341
 +2 C342 +2 C343 +2 C344 +8 C345 +C346 +4 C347 +4 C348 +4 C349 +2 C350 +8 C351 +8 C352 +4 C353 +4 C354
 +2 C355 +8 C356 +C357 +4 C358 +2 C359 +4 C360 +8 C361 +2 C362 +8 C363 +8 C364 +4 C365 +8 C366 = 45;
+C1 +2 C2 +2 C3 +2 C4 +4 C5 +4 C6 +4 C7 +2 C8 +4 C9 +4 C10 +8 C11 +C12 +2 C13 +2 C14 +2 C15 +2 C16 +2 C17
 +2 C18 +4 C19 +4 C20 +4 C21 +4 C22 +4 C23 +4 C24 +2 C25 +4 C26 +4 C27 +C28 +2 C29 +2 C30 +2 C31 +2 C32
 +2 C33 +2 C34 +2 C35 +4 C36 +4 C37 +4 C38 +4 C39 +4 C40 +4 C41 +8 C42 +2 C43 +2 C44 +2 C45 +2 C46 +2 C47
 +2 C48 +4 C49 +4 C50 +4 C51 +4 C52 +4 C53 +4 C54 +4 C55 +8 C56 +8 C57 +C58 +2 C59 +2 C60 +2 C61 +2 C62
 +2 C63 +2 C64 +2 C65 +4 C66 +4 C67 +4 C68 +4 C69 +4 C70 +4 C71 +4 C72 +4 C73 +8 C74 +8 C75 +4 C76 +2 C77
 +2 C78 +2 C79 +2 C80 +4 C81 +4 C82 +4 C83 +4 C84 +4 C85 +4 C86 +4 C87 +8 C88 +8 C89 +8 C90 +C91 +2 C92
 +2 C93 +2 C94 +2 C95 +4 C96 +4 C97 +4 C98 +8 C99 +4 C100 +4 C101 +4 C102 +4 C103 +4 C104 +8 C105 +8 C106
 +8 C107 +C108 +2 C109 +2 C110 +2 C111 +2 C112 +2 C113 +2 C114 +2 C115 +4 C116 +4 C117 +4 C118 +4 C119
 +4 C120 +4 C121 +4 C122 +8 C123 +8 C124 +8 C125 +C126 +2 C127 +2 C128 +2 C129 +2 C130 +2 C131 +2 C132
 +4 C133 +4 C134 +4 C135 +4 C136 +4 C137 +8 C138 +8 C139 +8 C140 +8 C141 +8 C142 +C143 +2 C144 +2 C145
 +2 C146 +2 C147 +2 C148 +4 C149 +4 C150 +4 C151 +4 C152 +2 C153 +4 C154 +4 C155 +8 C156 +8 C157 +8 C158
 +C159 +C160 +2 C161 +2 C162 +2 C163 +2 C164 +4 C165 +4 C166 +4 C167 +4 C168 +8 C169 +8 C170 +C171 +2 C172
 +2 C173 +2 C174 +2 C175 +2 C176 +2 C177 +4 C178 +4 C179 +4 C180 +4 C181 +4 C182 +4 C183 +8 C184 +8 C185
 +C186 +C187 +2 C188 +4 C189 +2 C190 +2 C191 +2 C192 +2 C193 +4 C194 +2 C195 +4 C196 +4 C197 +4 C198
 +4 C199 +4 C200 +8 C201 +8 C202 +8 C203 +8 C204 +C205 +2 C206 +4 C207 +4 C208 +4 C209 +4 C210 +4 C211
 +8 C212 +8 C213 +2 C214 +2 C215 +2 C216 +2 C217 +2 C218 +2 C219 +2 C220 +2 C221 +2 C222 +4 C223 +4 C224
 +4 C225 +4 C226 +4 C227 +4 C228 +4 C229 +8 C230 +8 C231 +C232 +2 C233 +4 C234 +2 C235 +2 C236 +2 C237
 +2 C238 +4 C239 +4 C240 +4 C241 +4 C242 +8 C243 +4 C244 +8 C245 +8 C246 +C247 +2 C248 +2 C249 +2 C250
 +2 C251 +2 C252 +4 C253 +4 C254 +4 C255 +8 C256 +4 C257 +4 C258 +4 C259 +4 C260 +8 C261 +8 C262 +8 C263
 +C264 +2 C265 +2 C266 +2 C267 +2 C268 +2 C269 +2 C270 +4 C271 +4 C272 +4 C273 +4 C274 +4 C275 +4 C276
 +4 C277 +8 C278 +8 C279 +2 C280 +8 C281 +8 C282 +8 C283 +2 C284 +4 C285 +4 C286 +8 C287 +8 C288 +2 C289
 +2 C290 +4 C291 +8 C292 +C293 +4 C294 +4 C295 +4 C296 +C297 +2 C298 +4 C299 +8 C300 +4 C301 +8 C302
 +8 C303 +4 C304 +4 C305 +2 C306 +2 C307 +8 C308 +2 C309 +4 C310 +2 C311 +4 C312 +4 C313 +2 C314 +4 C315
 +8 C316 +2 C317 +4 C318 +4 C319 +C320 +2 C321 +4 C322 +8 C323 +2 C324 +2 C325 +4 C326 +C327 +2 C328
 +4 C329 +4 C330 +4 C331 +4 C332 +C333 +8 C334 +4 C335 +C336 +4 C337 +8 C338 +2 C339 +4 C340 +8 C341
 +2 C342 +2 C343 +2 C344 +8 C345 +C346 +4 C347 +4 C348 +4 C349 +2 C350 +8 C351 +8 C352 +4 C353 +4 C354
 +2 C355 +8 C356 +C357 +4 C358 +2 C359 +4 C360 +8 C361 +2 C362 +8 C363 +8 C364 +4 C365 +8 C366 = 45;
+C1 +2 C2 +2 C3 +2 C4 +4 C5 +4 C6 +4 C7 +2 C8 +4 C9 +4 C10 +8 C11 +C12 +2 C13 +2 C14 +2 C15 +2 C16 +2 C17
 +2 C18 +4 C19 +4 C20 +4 C21 +4 C22 +4 C23 +4 C24 +2 C25 +4 C26 +4 C27 +C28 +2 C29 +2 C30 +2 C31 +2 C32
 +2 C33 +2 C34 +2 C35 +4 C36 +4 C37 +4 C38 +4 C39 +4 C40 +4 C41 +8 C42 +2 C43 +2 C44 +2 C45 +2 C46 +2 C47
 +2 C48 +4 C49 +4 C50 +4 C51 +4 C52 +4 C53 +4 C54 +4 C55 +8 C56 +8 C57 +C58 +2 C59 +2 C60 +2 C61 +2 C62
 +2 C63 +2 C64 +2 C65 +4 C66 +4 C67 +4 C68 +4 C69 +4 C70 +4 C71 +4 C72 +4 C73 +8 C74 +8 C75 +4 C76 +2 C77
 +2 C78 +2 C79 +2 C80 +4 C81 +4 C82 +4 C83 +4 C84 +4 C85 +4 C86 +4 C87 +8 C88 +8 C89 +8 C90 +C91 +2 C92
 +2 C93 +2 C94 +2 C95 +4 C96 +4 C97 +4 C98 +8 C99 +4 C100 +4 C101 +4 C102 +4 C103 +4 C104 +8 C105 +8 C106
 +8 C107 +C108 +2 C109 +2 C110 +2 C111 +2 C112 +2 C113 +2 C114 +2 C115 +4 C116 +4 C117 +4 C118 +4 C119
 +4 C120 +4 C121 +4 C122 +8 C123 +8 C124 +8 C125 +C126 +2 C127 +2 C128 +2 C129 +2 C130 +2 C131 +2 C132
 +4 C133 +4 C134 +4 C135 +4 C136 +4 C137 +8 C138 +8 C139 +8 C140 +8 C141 +8 C142 +C143 +2 C144 +2 C145
 +2 C146 +2 C147 +2 C148 +4 C149 +4 C150 +4 C151 +4 C152 +2 C153 +4 C154 +4 C155 +8 C156 +8 C157 +8 C158
 +C159 +C160 +2 C161 +2 C162 +2 C163 +2 C164 +4 C165 +4 C166 +4 C167 +4 C168 +8 C169 +8 C170 +C171 +2 C172
 +2 C173 +2 C174 +2 C175 +2 C176 +2 C177 +4 C178 +4 C179 +4 C180 +4 C181 +4 C182 +4 C183 +8 C184 +8 C185
 +C186 +C187 +2 C188 +4 C189 +2 C190 +2 C191 +2 C192 +2 C193 +4 C194 +2 C195 +4 C196 +4 C197 +4 C198
 +4 C199 +4 C200 +8 C201 +8 C202 +8 C203 +8 C204 +C205 +2 C206 +4 C207 +4 C208 +4 C209 +4 C210 +4 C211
 +8 C212 +8 C213 +2 C214 +2 C215 +2 C216 +2 C217 +2 C218 +2 C219 +2 C220 +2 C221 +2 C222 +4 C223 +4 C224
 +4 C225 +4 C226 +4 C227 +4 C228 +4 C229 +8 C230 +8 C231 +C232 +2 C233 +4 C234 +2 C235 +2 C236 +2 C237
 +2 C238 +4 C239 +4 C240 +4 C241 +4 C242 +8 C243 +4 C244 +8 C245 +8 C246 +C247 +2 C248 +2 C249 +2 C250
 +2 C251 +2 C252 +4 C253 +4 C254 +4 C255 +8 C256 +4 C257 +4 C258 +4 C259 +4 C260 +8 C261 +8 C262 +8 C263
 +C264 +2 C265 +2 C266 +2 C267 +2 C268 +2 C269 +2 C270 +4 C271 +4 C272 +4 C273 +4 C274 +4 C275 +4 C276
 +4 C277 +8 C278 +8 C279 +2 C280 +8 C281 +8 C282 +8 C283 +2 C284 +4 C285 +4 C286 +8 C287 +8 C288 +2 C289
 +2 C290 +4 C291 +8 C292 +C293 +4 C294 +4 C295 +4 C296 +C297 +2 C298 +4 C299 +8 C300 +4 C301 +8 C302
 +8 C303 +4 C304 +4 C305 +2 C306 +2 C307 +8 C308 +2 C309 +4 C310 +2 C311 +4 C312 +4 C313 +2 C314 +4 C315
 +8 C316 +2 C317 +4 C318 +4 C319 +C320 +2 C321 +4 C322 +8 C323 +2 C324 +2 C325 +4 C326 +C327 +2 C328
 +4 C329 +4 C330 +4 C331 +4 C332 +C333 +8 C334 +4 C335 +C336 +4 C337 +8 C338 +2 C339 +4 C340 +8 C341
 +2 C342 +2 C343 +2 C344 +8 C345 +C346 +4 C347 +4 C348 +4 C349 +2 C350 +8 C351 +8 C352 +4 C353 +4 C354
 +2 C355 +8 C356 +C357 +4 C358 +2 C359 +4 C360 +8 C361 +2 C362 +8 C363 +8 C364 +4 C365 +8 C366 = 45;
+C1 +2 C2 +2 C3 +2 C4 +4 C5 +4 C6 +4 C7 +2 C8 +4 C9 +4 C10 +8 C11 +C12 +2 C13 +2 C14 +2 C15 +2 C16 +2 C17
 +2 C18 +4 C19 +4 C20 +4 C21 +4 C22 +4 C23 +4 C24 +2 C25 +4 C26 +4 C27 +C28 +2 C29 +2 C30 +2 C31 +2 C32
 +2 C33 +2 C34 +2 C35 +4 C36 +4 C37 +4 C38 +4 C39 +4 C40 +4 C41 +8 C42 +2 C43 +2 C44 +2 C45 +2 C46 +2 C47
 +2 C48 +4 C49 +4 C50 +4 C51 +4 C52 +4 C53 +4 C54 +4 C55 +8 C56 +8 C57 +C58 +2 C59 +2 C60 +2 C61 +2 C62
 +2 C63 +2 C64 +2 C65 +4 C66 +4 C67 +4 C68 +4 C69 +4 C70 +4 C71 +4 C72 +4 C73 +8 C74 +8 C75 +4 C76 +2 C77
 +2 C78 +2 C79 +2 C80 +4 C81 +4 C82 +4 C83 +4 C84 +4 C85 +4 C86 +4 C87 +8 C88 +8 C89 +8 C90 +C91 +2 C92
 +2 C93 +2 C94 +2 C95 +4 C96 +4 C97 +4 C98 +8 C99 +4 C100 +4 C101 +4 C102 +4 C103 +4 C104 +8 C105 +8 C106
 +8 C107 +C108 +2 C109 +2 C110 +2 C111 +2 C112 +2 C113 +2 C114 +2 C115 +4 C116 +4 C117 +4 C118 +4 C119
 +4 C120 +4 C121 +4 C122 +8 C123 +8 C124 +8 C125 +C126 +2 C127 +2 C128 +2 C129 +2 C130 +2 C131 +2 C132
 +4 C133 +4 C134 +4 C135 +4 C136 +4 C137 +8 C138 +8 C139 +8 C140 +8 C141 +8 C142 +C143 +2 C144 +2 C145
 +2 C146 +2 C147 +2 C148 +4 C149 +4 C150 +4 C151 +4 C152 +2 C153 +4 C154 +4 C155 +8 C156 +8 C157 +8 C158
 +C159 +C160 +2 C161 +2 C162 +2 C163 +2 C164 +4 C165 +4 C166 +4 C167 +4 C168 +8 C169 +8 C170 +C171 +2 C172
 +2 C173 +2 C174 +2 C175 +2 C176 +2 C177 +4 C178 +4 C179 +4 C180 +4 C181 +4 C182 +4 C183 +8 C184 +8 C185
 +C186 +C187 +2 C188 +4 C189 +2 C190 +2 C191 +2 C192 +2 C193 +4 C194 +2 C195 +4 C196 +4 C197 +4 C198
 +4 C199 +4 C200 +8 C201 +8 C202 +8 C203 +8 C204 +C205 +2 C206 +4 C207 +4 C208 +4 C209 +4 C210 +4 C211
 +8 C212 +8 C213 +2 C214 +2 C215 +2 C216 +2 C217 +2 C218 +2 C219 +2 C220 +2 C221 +2 C222 +4 C223 +4 C224
 +4 C225 +4 C226 +4 C227 +4 C228 +4 C229 +8 C230 +8 C231 +C232 +2 C233 +4 C234 +2 C235 +2 C236 +2 C237
 +2 C238 +4 C239 +4 C240 +4 C241 +4 C242 +8 C243 +4 C244 +8 C245 +8 C246 +C247 +2 C248 +2 C249 +2 C250
 +2 C251 +2 C252 +4 C253 +4 C254 +4 C255 +8 C256 +4 C257 +4 C258 +4 C259 +4 C260 +8 C261 +8 C262 +8 C263
 +C264 +2 C265 +2 C266 +2 C267 +2 C268 +2 C269 +2 C270 +4 C271 +4 C272 +4 C273 +4 C274 +4 C275 +4 C276
 +4 C277 +8 C278 +8 C279 +2 C280 +8 C281 +8 C282 +8 C283 +2 C284 +4 C285 +4 C286 +8 C287 +8 C288 +2 C289
 +2 C290 +4 C291 +8 C292 +C293 +4 C294 +4 C295 +4 C296 +C297 +2 C298 +4 C299 +8 C300 +4 C301 +8 C302
 +8 C303 +4 C304 +4 C305 +2 C306 +2 C307 +8 C308 +2 C309 +4 C310 +2 C311 +4 C312 +4 C313 +2 C314 +4 C315
 +8 C316 +2 C317 +4 C318 +4 C319 +C320 +2 C321 +4 C322 +8 C323 +2 C324 +2 C325 +4 C326 +C327 +2 C328
 +4 C329 +4 C330 +4 C331 +4 C332 +C333 +8 C334 +4 C335 +C336 +4 C337 +8 C338 +2 C339 +4 C340 +8 C341
 +2 C342 +2 C343 +2 C344 +8 C345 +C346 +4 C347 +4 C348 +4 C349 +2 C350 +8 C351 +8 C352 +4 C353 +4 C354
 +2 C355 +8 C356 +C357 +4 C358 +2 C359 +4 C360 +8 C361 +2 C362 +8 C363 +8 C364 +4 C365 +8 C366 = 45;

/* Variable bounds */
C1 <= 1;
C2 <= 1;
C3 <= 1;
C4 <= 1;
C5 <= 1;
C6 <= 1;
C7 <= 1;
C8 <= 1;
C9 <= 1;
C10 <= 1;
C11 <= 1;
C12 <= 1;
C13 <= 1;
C14 <= 1;
C15 <= 1;
C16 <= 1;
C17 <= 1;
C18 <= 1;
C19 <= 1;
C20 <= 1;
C21 <= 1;
C22 <= 1;
C23 <= 1;
C24 <= 1;
C25 <= 1;
C26 <= 1;
C27 <= 1;
C28 <= 1;
C29 <= 1;
C30 <= 1;
C31 <= 1;
C32 <= 1;
C33 <= 1;
C34 <= 1;
C35 <= 1;
C36 <= 1;
C37 <= 1;
C38 <= 1;
C39 <= 1;
C40 <= 1;
C41 <= 1;
C42 <= 1;
C43 <= 1;
C44 <= 1;
C45 <= 1;
C46 <= 1;
C47 <= 1;
C48 <= 1;
C49 <= 1;
C50 <= 1;
C51 <= 1;
C52 <= 1;
C53 <= 1;
C54 <= 1;
C55 <= 1;
C56 <= 1;
C57 <= 1;
C58 <= 1;
C59 <= 1;
C60 <= 1;
C61 <= 1;
C62 <= 1;
C63 <= 1;
C64 <= 1;
C65 <= 1;
C66 <= 1;
C67 <= 1;
C68 <= 1;
C69 <= 1;
C70 <= 1;
C71 <= 1;
C72 <= 1;
C73 <= 1;
C74 <= 1;
C75 <= 1;
C76 <= 1;
C77 <= 1;
C78 <= 1;
C79 <= 1;
C80 <= 1;
C81 <= 1;
C82 <= 1;
C83 <= 1;
C84 <= 1;
C85 <= 1;
C86 <= 1;
C87 <= 1;
C88 <= 1;
C89 <= 1;
C90 <= 1;
C91 <= 1;
C92 <= 1;
C93 <= 1;
C94 <= 1;
C95 <= 1;
C96 <= 1;
C97 <= 1;
C98 <= 1;
C99 <= 1;
C100 <= 1;
C101 <= 1;
C102 <= 1;
C103 <= 1;
C104 <= 1;
C105 <= 1;
C106 <= 1;
C107 <= 1;
C108 <= 1;
C109 <= 1;
C110 <= 1;
C111 <= 1;
C112 <= 1;
C113 <= 1;
C114 <= 1;
C115 <= 1;
C116 <= 1;
C117 <= 1;
C118 <= 1;
C119 <= 1;
C120 <= 1;
C121 <= 1;
C122 <= 1;
C123 <= 1;
C124 <= 1;
C125 <= 1;
C126 <= 1;
C127 <= 1;
C128 <= 1;
C129 <= 1;
C130 <= 1;
C131 <= 1;
C132 <= 1;
C133 <= 1;
C134 <= 1;
C135 <= 1;
C136 <= 1;
C137 <= 1;
C138 <= 1;
C139 <= 1;
C140 <= 1;
C141 <= 1;
C142 <= 1;
C143 <= 1;
C144 <= 1;
C145 <= 1;
C146 <= 1;
C147 <= 1;
C148 <= 1;
C149 <= 1;
C150 <= 1;
C151 <= 1;
C152 <= 1;
C153 <= 1;
C154 <= 1;
C155 <= 1;
C156 <= 1;
C157 <= 1;
C158 <= 1;
C159 <= 1;
C160 <= 1;
C161 <= 1;
C162 <= 1;
C163 <= 1;
C164 <= 1;
C165 <= 1;
C166 <= 1;
C167 <= 1;
C168 <= 1;
C169 <= 1;
C170 <= 1;
C171 <= 1;
C172 <= 1;
C173 <= 1;
C174 <= 1;
C175 <= 1;
C176 <= 1;
C177 <= 1;
C178 <= 1;
C179 <= 1;
C180 <= 1;
C181 <= 1;
C182 <= 1;
C183 <= 1;
C184 <= 1;
C185 <= 1;
C186 <= 1;
C187 <= 1;
C188 <= 1;
C189 <= 1;
C190 <= 1;
C191 <= 1;
C192 <= 1;
C193 <= 1;
C194 <= 1;
C195 <= 1;
C196 <= 1;
C197 <= 1;
C198 <= 1;
C199 <= 1;
C200 <= 1;
C201 <= 1;
C202 <= 1;
C203 <= 1;
C204 <= 1;
C205 <= 1;
C206 <= 1;
C207 <= 1;
C208 <= 1;
C209 <= 1;
C210 <= 1;
C211 <= 1;
C212 <= 1;
C213 <= 1;
C214 <= 1;
C215 <= 1;
C216 <= 1;
C217 <= 1;
C218 <= 1;
C219 <= 1;
C220 <= 1;
C221 <= 1;
C222 <= 1;
C223 <= 1;
C224 <= 1;
C225 <= 1;
C226 <= 1;
C227 <= 1;
C228 <= 1;
C229 <= 1;
C230 <= 1;
C231 <= 1;
C232 <= 1;
C233 <= 1;
C234 <= 1;
C235 <= 1;
C236 <= 1;
C237 <= 1;
C238 <= 1;
C239 <= 1;
C240 <= 1;
C241 <= 1;
C242 <= 1;
C243 <= 1;
C244 <= 1;
C245 <= 1;
C246 <= 1;
C247 <= 1;
C248 <= 1;
C249 <= 1;
C250 <= 1;
C251 <= 1;
C252 <= 1;
C253 <= 1;
C254 <= 1;
C255 <= 1;
C256 <= 1;
C257 <= 1;
C258 <= 1;
C259 <= 1;
C260 <= 1;
C261 <= 1;
C262 <= 1;
C263 <= 1;
C264 <= 1;
C265 <= 1;
C266 <= 1;
C267 <= 1;
C268 <= 1;
C269 <= 1;
C270 <= 1;
C271 <= 1;
C272 <= 1;
C273 <= 1;
C274 <= 1;
C275 <= 1;
C276 <= 1;
C277 <= 1;
C278 <= 1;
C279 <= 1;
C280 <= 1;
C281 <= 1;
C282 <= 1;
C283 <= 1;
C284 <= 1;
C285 <= 1;
C286 <= 1;
C287 <= 1;
C288 <= 1;
C289 <= 1;
C290 <= 1;
C291 <= 1;
C292 <= 1;
C293 <= 1;
C294 <= 1;
C295 <= 1;
C296 <= 1;
C297 <= 1;
C298 <= 1;
C299 <= 1;
C300 <= 1;
C301 <= 1;
C302 <= 1;
C303 <= 1;
C304 <= 1;
C305 <= 1;
C306 <= 1;
C307 <= 1;
C308 <= 1;
C309 <= 1;
C310 <= 1;
C311 <= 1;
C312 <= 1;
C313 <= 1;
C314 <= 1;
C315 <= 1;
C316 <= 1;
C317 <= 1;
C318 <= 1;
C319 <= 1;
C320 <= 1;
C321 <= 1;
C322 <= 1;
C323 <= 1;
C324 <= 1;
C325 <= 1;
C326 <= 1;
C327 <= 1;
C328 <= 1;
C329 <= 1;
C330 <= 1;
C331 <= 1;
C332 <= 1;
C333 <= 1;
C334 <= 1;
C335 <= 1;
C336 <= 1;
C337 <= 1;
C338 <= 1;
C339 <= 1;
C340 <= 1;
C341 <= 1;
C342 <= 1;
C343 <= 1;
C344 <= 1;
C345 <= 1;
C346 <= 1;
C347 <= 1;
C348 <= 1;
C349 <= 1;
C350 <= 1;
C351 <= 1;
C352 <= 1;
C353 <= 1;
C354 <= 1;
C355 <= 1;
C356 <= 1;
C357 <= 1;
C358 <= 1;
C359 <= 1;
C360 <= 1;
C361 <= 1;
C362 <= 1;
C363 <= 1;
C364 <= 1;
C365 <= 1;
C366 <= 1;

/* Integer definitions */
int C1,C2,C3,C4,C5,C6,C7,C8,C9,C10,C11,C12,C13,C14,C15,C16,C17,C18,C19,C20,C21,C22,C23,C24,C25,C26,C27,C28,C29,C30,C31,C32,C33,C34,C35,C36,C37,C38,C39,C40,C41,C42,C43,C44,C45,C46,C47,C48,C49,C50,C51,C52,C53,C54,C55,C56,C57,C58,C59,C60,C61,C62,C63,C64,C65,C66,C67,C68,C69,C70,C71,C72,C73,C74,C75,C76,C77,C78,C79,C80,C81,C82,C83,C84,C85,C86,C87,C88,C89,C90,C91,C92,C93,C94,C95,C96,C97,C98,C99,C100,C101,C102,C103,C104,C105,C106,C107,C108,C109,C110,C111,C112,C113,C114,C115,C116,C117,C118,C119,C120,C121,C122,C123,C124,C125,C126,C127,C128,C129,C130,C131,C132,C133,C134,C135,C136,C137,C138,C139,C140,C141,C142,C143,C144,C145,C146,C147,C148,C149,C150,C151,C152,C153,C154,C155,C156,C157,C158,C159,C160,C161,C162,C163,C164,C165,C166,C167,C168,C169,C170,C171,C172,C173,C174,C175,C176,C177,C178,C179,C180,C181,C182,C183,C184,C185,C186,C187,C188,C189,C190,C191,C192,C193,C194,C195,C196,C197,C198,C199,C200,C201,C202,C203,C204,C205,C206,C207,C208,C209,C210,C211,C212,C213,C214,C215,C216,C217,C218,C219,C220,C221,C222,C223,C224,C225,C226,C227,C228,C229,C230,C231,C232,C233,C234,C235,C236,C237,C238,C239,C240,C241,C242,C243,C244,C245,C246,C247,C248,C249,C250,C251,C252,C253,C254,C255,C256,C257,C258,C259,C260,C261,C262,C263,C264,C265,C266,C267,C268,C269,C270,C271,C272,C273,C274,C275,C276,C277,C278,C279,C280,C281,C282,C283,C284,C285,C286,C287,C288,C289,C290,C291,C292,C293,C294,C295,C296,C297,C298,C299,C300,C301,C302,C303,C304,C305,C306,C307,C308,C309,C310,C311,C312,C313,C314,C315,C316,C317,C318,C319,C320,C321,C322,C323,C324,C325,C326,C327,C328,C329,C330,C331,C332,C333,C334,C335,C336,C337,C338,C339,C340,C341,C342,C343,C344,C345,C346,C347,C348,C349,C350,C351,C352,C353,C354,C355,C356,C357,C358,C359,C360,C361,C362,C363,C364,C365,C366;
